     Program PWSCF v.7.2 starts on  7Sep2023 at  6:37:48

     Reading input from scf.in
Warning: card &CELL ignored
Warning: card CELL_DYNAMICS = 'BFGS' ignored
Warning: card CELL_FACTOR = 2 ignored
Warning: card PRESS_CONV_THR = 0.2 ignored
Warning: card / ignored

     Current dimensions of program PWSCF are:
     Max number of different atomic species (ntypx) = 10
     Max number of k-points (npk) = 120000
     Max angular momentum in pseudopotentials (lmaxx) =  4
     Found identity + (  0.0000 -0.5000 -0.5000) symmetry
     This is a supercell, fractional translations are disabled
     Message from routine setup:
     using ibrav=0 with symmetry is DISCOURAGED, use correct ibrav instead

     R & G space division:  proc/nbgrp/npool/nimage =       4
     Subspace diagonalization in iterative solution of the eigenvalue problem:
     one sub-group per band group will be used

     Using Slab Decomposition

     bravais-lattice index     =            0
     lattice parameter (alat)  =      15.1392  a.u.
     unit-cell volume          =    3469.8303 (a.u.)^3
     number of atoms/cell      =           40
     number of atomic types    =            4
     number of electrons       =       344.00
     number of Kohn-Sham states=          206
     kinetic-energy cutoff     =      80.0000  Ry
     charge density cutoff     =     800.0000  Ry
     scf convergence threshold =      1.0E-06
     mixing beta               =       0.7000
     number of iterations used =            8  plain     mixing
     Exchange-correlation= SLA  PW   PSX  PSC
                           (   1   4  10   8   0   0   0)

     celldm(1)=  15.139194  celldm(2)=   0.000000  celldm(3)=   0.000000
     celldm(4)=   0.000000  celldm(5)=   0.000000  celldm(6)=   0.000000

     crystal axes: (cart. coord. in units of alat)
               a(1) = (   1.000000   0.000000   0.000000 )
               a(2) = (   0.000000   1.000000   0.000000 )
               a(3) = (   0.000000   0.000000   1.000000 )

     reciprocal axes: (cart. coord. in units 2 pi/alat)
               b(1) = (  1.000000  0.000000  0.000000 )
               b(2) = (  0.000000  1.000000  0.000000 )
               b(3) = (  0.000000  0.000000  1.000000 )

     PseudoPot. # 1 for Sr read from file:
     /home/shamitadessai2507/calculations/pseudopotential_lib/Shamita/pbesol/sr_pbesol_v1.uspp.F.UPF
     MD5 check sum: 635bff1625df5273dba4129a01ed8c82
     Pseudo is Ultrasoft + core correction, Zval = 10.0
     Generated by new atomic code, or converted to UPF format
     Using radial grid of  883 points,  6 beta functions with:
                l(1) =   0
                l(2) =   0
                l(3) =   1
                l(4) =   1
                l(5) =   2
                l(6) =   2
     Q(r) pseudized with  6 coefficients,  rinner =    1.400   1.400   1.400
                                                       1.400   1.400

     PseudoPot. # 2 for Fe read from file:
     /home/shamitadessai2507/calculations/pseudopotential_lib/Shamita/pbesol/fe_pbesol_v1.5.uspp.F.UPF
     MD5 check sum: a3f38e9a1a818e424be8f97771a26c64
     Pseudo is Ultrasoft + core correction, Zval = 16.0
     Generated by new atomic code, or converted to UPF format
     Using radial grid of  861 points,  6 beta functions with:
                l(1) =   0
                l(2) =   0
                l(3) =   1
                l(4) =   1
                l(5) =   2
                l(6) =   2
     Q(r) pseudized with  8 coefficients,  rinner =    1.000   1.000   1.000
                                                       1.000   1.000

     PseudoPot. # 3 for Mo read from file:
     /home/shamitadessai2507/calculations/pseudopotential_lib/Shamita/pbesol/mo_pbesol_v1.uspp.F.UPF
     MD5 check sum: 7da09e9258fac13defe18f4707e85514
     Pseudo is Ultrasoft + core correction, Zval = 14.0
     Generated by new atomic code, or converted to UPF format
     Using radial grid of  889 points,  6 beta functions with:
                l(1) =   0
                l(2) =   0
                l(3) =   1
                l(4) =   1
                l(5) =   2
                l(6) =   2
     Q(r) pseudized with  6 coefficients,  rinner =    1.000   1.000   1.000
                                                       1.000   1.000

     PseudoPot. # 4 for O  read from file:
     /home/shamitadessai2507/calculations/pseudopotential_lib/Shamita/pbesol/o_pbesol_v1.2.uspp.F.UPF
     MD5 check sum: 501638753501ef6325af9037351f7734
     Pseudo is Ultrasoft + core correction, Zval =  6.0
     Generated by new atomic code, or converted to UPF format
     Using radial grid of  737 points,  5 beta functions with:
                l(1) =   0
                l(2) =   0
                l(3) =   1
                l(4) =   1
                l(5) =   2
     Q(r) pseudized with  8 coefficients,  rinner =    0.900   0.900   0.900
                                                       0.900   0.900

     atomic species   valence    mass     pseudopotential
        Sr            10.00    87.62000     Sr( 1.00)
        Fe            16.00    55.84500     Fe( 1.00)
        Mo            14.00    95.96000     Mo( 1.00)
        O              6.00    15.99940     O ( 1.00)

     Starting magnetic structure
     atomic species   magnetization
        Sr           0.000
        Fe           0.500
        Mo           0.500
        O            0.000

     48 Sym. Ops., with inversion, found

                                    s                        frac. trans.

      isym =  1     identity

 cryst.   s( 1) = (     1          0          0      )
                  (     0          1          0      )
                  (     0          0          1      )

 cart.    s( 1) = (  1.0000000  0.0000000  0.0000000 )
                  (  0.0000000  1.0000000  0.0000000 )
                  (  0.0000000  0.0000000  1.0000000 )

      isym =  2     180 deg rotation - cart. axis [0,0,1]

[...]

 cryst.   s( 9) = (     0          0          1      )
                  (     0         -1          0      )
                  (     1          0          0      )

 cart.    s( 9) = (  0.0000000  0.0000000  1.0000000 )
                  (  0.0000000 -1.0000000  0.0000000 )
                  (  1.0000000  0.0000000  0.0000000 )

[...]

 cryst.   s(10) = (     0          0         -1      )
                  (     0         -1          0      )
                  (    -1          0          0      )

 cart.    s(10) = (  0.0000000  0.0000000 -1.0000000 )
                  (  0.0000000 -1.0000000  0.0000000 )
                  ( -1.0000000  0.0000000  0.0000000 )

[...]

      isym = 24     120 deg rotation - cart. axis [-1,-1,1]

[...]

      isym = 25     inversion

[...]

      isym = 26     inv. 180 deg rotation - cart. axis [0,0,1]

[...]

      isym = 48     inv. 120 deg rotation - cart. axis [-1,-1,1]

 cryst.   s(48) = (     0         -1          0      )
                  (     0          0          1      )
                  (     1          0          0      )

 cart.    s(48) = (  0.0000000  0.0000000  1.0000000 )
                  ( -1.0000000  0.0000000  0.0000000 )
                  (  0.0000000  1.0000000  0.0000000 )

   Cartesian axes

     site n.     atom                  positions (alat units)
         1           Sr  tau(   1) = (   0.2500000   0.2500000   0.2500000  )
         2           Sr  tau(   2) = (   0.7500000   0.7500000   0.7500000  )
         3           Sr  tau(   3) = (   0.7500000   0.2500000   0.2500000  )
         4           Sr  tau(   4) = (   0.2500000   0.7500000   0.7500000  )
         5           Sr  tau(   5) = (   0.7500000   0.7500000   0.2500000  )
         6           Sr  tau(   6) = (   0.2500000   0.2500000   0.7500000  )
         7           Sr  tau(   7) = (   0.2500000   0.7500000   0.2500000  )
         8           Sr  tau(   8) = (   0.7500000   0.2500000   0.7500000  )
         9           Fe  tau(   9) = (   0.0000000   0.0000000   0.0000000  )
        10           Fe  tau(  10) = (   0.5000000   0.5000000   0.0000000  )
        11           Fe  tau(  11) = (   0.5000000   0.0000000   0.5000000  )
        12           Fe  tau(  12) = (   0.0000000   0.5000000   0.5000000  )
        13           Mo  tau(  13) = (   0.0000000   0.0000000   0.5000000  )
        14           Mo  tau(  14) = (   0.5000000   0.0000000   0.0000000  )
        15           Mo  tau(  15) = (   0.0000000   0.5000000   0.0000000  )
        16           Mo  tau(  16) = (   0.5000000   0.5000000   0.5000000  )
        17           O   tau(  17) = (   0.0000000   0.0000000   0.2559348  )
        18           O   tau(  18) = (   0.0000000   0.0000000   0.7440653  )
        19           O   tau(  19) = (   0.2559348   0.0000000   0.0000000  )
        20           O   tau(  20) = (   0.7440653   0.0000000   0.0000000  )
        21           O   tau(  21) = (   0.0000000   0.2559348   0.0000000  )
        22           O   tau(  22) = (   0.0000000   0.7440653   0.0000000  )
        23           O   tau(  23) = (   0.5000000   0.5000000   0.2559348  )
        24           O   tau(  24) = (   0.5000000   0.5000000   0.7440653  )
        25           O   tau(  25) = (   0.7559348   0.5000000   0.0000000  )
        26           O   tau(  26) = (   0.2440653   0.5000000   0.0000000  )
        27           O   tau(  27) = (   0.5000000   0.7559348   0.0000000  )
        28           O   tau(  28) = (   0.5000000   0.2440653   0.0000000  )
        29           O   tau(  29) = (   0.5000000   0.0000000   0.7559348  )
        30           O   tau(  30) = (   0.5000000   0.0000000   0.2440653  )
        31           O   tau(  31) = (   0.7559348   0.0000000   0.5000000  )
        32           O   tau(  32) = (   0.2440653   0.0000000   0.5000000  )
        33           O   tau(  33) = (   0.5000000   0.2559348   0.5000000  )
        34           O   tau(  34) = (   0.5000000   0.7440653   0.5000000  )
        35           O   tau(  35) = (   0.0000000   0.5000000   0.7559348  )
        36           O   tau(  36) = (   0.0000000   0.5000000   0.2440653  )
        37           O   tau(  37) = (   0.2559348   0.5000000   0.5000000  )
        38           O   tau(  38) = (   0.7440653   0.5000000   0.5000000  )
        39           O   tau(  39) = (   0.0000000   0.7559348   0.5000000  )
        40           O   tau(  40) = (   0.0000000   0.2440653   0.5000000  )

   Crystallographic axes

     site n.     atom                  positions (cryst. coord.)
         1           Sr  tau(   1) = (  0.2500000  0.2500000  0.2500000  )
         2           Sr  tau(   2) = (  0.7500000  0.7500000  0.7500000  )
         3           Sr  tau(   3) = (  0.7500000  0.2500000  0.2500000  )
         4           Sr  tau(   4) = (  0.2500000  0.7500000  0.7500000  )
         5           Sr  tau(   5) = (  0.7500000  0.7500000  0.2500000  )
         6           Sr  tau(   6) = (  0.2500000  0.2500000  0.7500000  )
         7           Sr  tau(   7) = (  0.2500000  0.7500000  0.2500000  )
         8           Sr  tau(   8) = (  0.7500000  0.2500000  0.7500000  )
         9           Fe  tau(   9) = (  0.0000000  0.0000000  0.0000000  )
[...]
     atom   23 type  4   force =     0.00000000    0.00000000   -0.61579446
     atom   24 type  4   force =     0.00000000    0.00000000    0.61579446
     atom   25 type  4   force =    -0.61579446    0.00000000   -0.00000000
     atom   26 type  4   force =     0.61579446   -0.00000000   -0.00000000
     atom   27 type  4   force =     0.00000000   -0.61579446   -0.00000000
     atom   28 type  4   force =    -0.00000000    0.61579446   -0.00000000
     atom   29 type  4   force =     0.00000000   -0.00000000   -0.61579446
     atom   30 type  4   force =    -0.00000000   -0.00000000    0.61579446
     atom   31 type  4   force =    -0.61579446   -0.00000000    0.00000000
     atom   32 type  4   force =     0.61579446    0.00000000   -0.00000000
     atom   33 type  4   force =    -0.00000000   -0.61579446    0.00000000
     atom   34 type  4   force =    -0.00000000    0.61579446    0.00000000
     atom   35 type  4   force =    -0.00000000    0.00000000   -0.61579446
     atom   36 type  4   force =    -0.00000000   -0.00000000    0.61579446
     atom   37 type  4   force =    -0.61579446   -0.00000000    0.00000000
     atom   38 type  4   force =     0.61579446    0.00000000    0.00000000
     atom   39 type  4   force =     0.00000000   -0.61579446    0.00000000
     atom   40 type  4   force =    -0.00000000    0.61579446   -0.00000000
     The local contribution  to forces
     atom    1 type  1   force =    -0.00014649   -0.00014649   -0.00014649
     atom    2 type  1   force =     0.00014649    0.00014649    0.00014649
     atom    3 type  1   force =     0.00014649   -0.00014649   -0.00014649
     atom    4 type  1   force =    -0.00014649    0.00014649    0.00014649
     atom    5 type  1   force =     0.00014649    0.00014649   -0.00014649
     atom    6 type  1   force =    -0.00014649   -0.00014649    0.00014649
     atom    7 type  1   force =    -0.00014649    0.00014649   -0.00014649
     atom    8 type  1   force =     0.00014649   -0.00014649    0.00014649
     atom    9 type  2   force =     0.00000000    0.00000000    0.00000000
     atom   10 type  2   force =     0.00000000    0.00000000    0.00000000
     atom   11 type  2   force =     0.00000000    0.00000000    0.00000000
     atom   12 type  2   force =     0.00000000    0.00000000    0.00000000
     atom   13 type  3   force =     0.00000000    0.00000000    0.00000000
     atom   14 type  3   force =     0.00000000    0.00000000    0.00000000
     atom   15 type  3   force =     0.00000000    0.00000000    0.00000000
     atom   16 type  3   force =     0.00000000    0.00000000    0.00000000
     atom   17 type  4   force =     0.00000000    0.00000000    0.33422321
     atom   18 type  4   force =     0.00000000    0.00000000   -0.33422321
     atom   19 type  4   force =     0.33422321   -0.00000000    0.00000000
     atom   20 type  4   force =    -0.33422321    0.00000000    0.00000000
     atom   21 type  4   force =     0.00000000    0.33422321    0.00000000
     atom   22 type  4   force =    -0.00000000   -0.33422321    0.00000000
     atom   23 type  4   force =     0.00000000    0.00000000    0.33435237
     atom   24 type  4   force =     0.00000000    0.00000000   -0.33435237
     atom   25 type  4   force =     0.33453435   -0.00000000    0.00000000
     atom   26 type  4   force =    -0.33453435    0.00000000    0.00000000
     atom   27 type  4   force =    -0.00000000    0.33453435    0.00000000
     atom   28 type  4   force =     0.00000000   -0.33453435    0.00000000
     atom   29 type  4   force =     0.00000000    0.00000000    0.33453435
     atom   30 type  4   force =     0.00000000    0.00000000   -0.33453435
     atom   31 type  4   force =     0.33453435   -0.00000000    0.00000000
     atom   32 type  4   force =    -0.33453435    0.00000000    0.00000000
     atom   33 type  4   force =     0.00000000    0.33435237    0.00000000
     atom   34 type  4   force =     0.00000000   -0.33435237    0.00000000
     atom   35 type  4   force =     0.00000000    0.00000000    0.33453435
     atom   36 type  4   force =     0.00000000    0.00000000   -0.33453435
     atom   37 type  4   force =     0.33435237   -0.00000000    0.00000000
     atom   38 type  4   force =    -0.33435237    0.00000000    0.00000000
     atom   39 type  4   force =    -0.00000000    0.33453435    0.00000000
     atom   40 type  4   force =     0.00000000   -0.33453435    0.00000000
     The core correction contribution to forces
     atom    1 type  1   force =    -0.00000034   -0.00000034   -0.00000034
     atom    2 type  1   force =     0.00000034    0.00000034    0.00000034
     atom    3 type  1   force =     0.00000034   -0.00000034   -0.00000034
     atom    4 type  1   force =    -0.00000034    0.00000034    0.00000034
     atom    5 type  1   force =     0.00000034    0.00000034   -0.00000034
     atom    6 type  1   force =    -0.00000034   -0.00000034    0.00000034
     atom    7 type  1   force =    -0.00000034    0.00000034   -0.00000034
     atom    8 type  1   force =     0.00000034   -0.00000034    0.00000034
     atom    9 type  2   force =     0.00000000    0.00000000    0.00000000
     atom   10 type  2   force =     0.00000000    0.00000000    0.00000000
     atom   11 type  2   force =     0.00000000    0.00000000    0.00000000
     atom   12 type  2   force =     0.00000000    0.00000000    0.00000000
     atom   13 type  3   force =     0.00000000    0.00000000   -0.00000000
     atom   14 type  3   force =    -0.00000000    0.00000000    0.00000000
     atom   15 type  3   force =     0.00000000   -0.00000000    0.00000000
     atom   16 type  3   force =    -0.00000000   -0.00000000   -0.00000000
     atom   17 type  4   force =     0.00000000    0.00000000   -0.00037166
     atom   18 type  4   force =     0.00000000    0.00000000    0.00037166
     atom   19 type  4   force =    -0.00037166    0.00000000    0.00000000
     atom   20 type  4   force =     0.00037166   -0.00000000    0.00000000
     atom   21 type  4   force =    -0.00000000   -0.00037166    0.00000000
     atom   22 type  4   force =     0.00000000    0.00037166    0.00000000
     atom   23 type  4   force =     0.00000000    0.00000000   -0.00037156
     atom   24 type  4   force =     0.00000000    0.00000000    0.00037156
     atom   25 type  4   force =    -0.00037185    0.00000000    0.00000000
     atom   26 type  4   force =     0.00037185   -0.00000000    0.00000000
     atom   27 type  4   force =     0.00000000   -0.00037185    0.00000000
     atom   28 type  4   force =     0.00000000    0.00037185    0.00000000
     atom   29 type  4   force =    -0.00000000    0.00000000   -0.00037185
     atom   30 type  4   force =     0.00000000    0.00000000    0.00037185
     atom   31 type  4   force =    -0.00037185   -0.00000000   -0.00000000
     atom   32 type  4   force =     0.00037185    0.00000000    0.00000000
     atom   33 type  4   force =     0.00000000   -0.00037156    0.00000000
     atom   34 type  4   force =    -0.00000000    0.00037156    0.00000000
     atom   35 type  4   force =     0.00000000   -0.00000000   -0.00037185
     atom   36 type  4   force =     0.00000000    0.00000000    0.00037185
     atom   37 type  4   force =    -0.00037156   -0.00000000    0.00000000
     atom   38 type  4   force =     0.00037156    0.00000000    0.00000000
     atom   39 type  4   force =    -0.00000000   -0.00037185   -0.00000000
     atom   40 type  4   force =     0.00000000    0.00037185    0.00000000
     The Hubbard contrib.    to forces
     atom    1 type  1   force =     0.00000000    0.00000000    0.00000000
     atom    2 type  1   force =     0.00000000    0.00000000    0.00000000
     atom    3 type  1   force =     0.00000000    0.00000000    0.00000000
     atom    4 type  1   force =     0.00000000    0.00000000    0.00000000
     atom    5 type  1   force =     0.00000000    0.00000000    0.00000000
     atom    6 type  1   force =     0.00000000    0.00000000    0.00000000
     atom    7 type  1   force =     0.00000000    0.00000000    0.00000000
     atom    8 type  1   force =     0.00000000    0.00000000    0.00000000
     atom    9 type  2   force =     0.00000000    0.00000000    0.00000000
     atom   10 type  2   force =     0.00000000    0.00000000    0.00000000
     atom   11 type  2   force =     0.00000000    0.00000000    0.00000000
     atom   12 type  2   force =     0.00000000    0.00000000    0.00000000
     atom   13 type  3   force =     0.00000000    0.00000000    0.00000000
     atom   14 type  3   force =     0.00000000    0.00000000    0.00000000
     atom   15 type  3   force =     0.00000000    0.00000000    0.00000000
     atom   16 type  3   force =     0.00000000    0.00000000    0.00000000
     atom   17 type  4   force =     0.00000000    0.00000000    0.00000000
     atom   18 type  4   force =     0.00000000    0.00000000    0.00000000
     atom   19 type  4   force =     0.00000000    0.00000000    0.00000000
     atom   20 type  4   force =     0.00000000    0.00000000    0.00000000
     atom   21 type  4   force =     0.00000000    0.00000000    0.00000000
     atom   22 type  4   force =     0.00000000    0.00000000    0.00000000
     atom   23 type  4   force =     0.00000000    0.00000000    0.00000000
     atom   24 type  4   force =     0.00000000    0.00000000    0.00000000
     atom   25 type  4   force =     0.00000000    0.00000000    0.00000000
     atom   26 type  4   force =     0.00000000    0.00000000    0.00000000
     atom   27 type  4   force =     0.00000000    0.00000000    0.00000000
     atom   28 type  4   force =     0.00000000    0.00000000    0.00000000
     atom   29 type  4   force =     0.00000000    0.00000000    0.00000000
     atom   30 type  4   force =     0.00000000    0.00000000    0.00000000
     atom   31 type  4   force =     0.00000000    0.00000000    0.00000000
     atom   32 type  4   force =     0.00000000    0.00000000    0.00000000
     atom   33 type  4   force =     0.00000000    0.00000000    0.00000000
     atom   34 type  4   force =     0.00000000    0.00000000    0.00000000
     atom   35 type  4   force =     0.00000000    0.00000000    0.00000000
     atom   36 type  4   force =     0.00000000    0.00000000    0.00000000
     atom   37 type  4   force =     0.00000000    0.00000000    0.00000000
     atom   38 type  4   force =     0.00000000    0.00000000    0.00000000
     atom   39 type  4   force =     0.00000000    0.00000000    0.00000000
     atom   40 type  4   force =     0.00000000    0.00000000    0.00000000
     The SCF correction term to forces
     atom    1 type  1   force =     0.00015080    0.00015080    0.00015080
     atom    2 type  1   force =    -0.00015080   -0.00015080   -0.00015080
     atom    3 type  1   force =    -0.00015080    0.00015080    0.00015080
     atom    4 type  1   force =     0.00015080   -0.00015080   -0.00015080
     atom    5 type  1   force =    -0.00015080   -0.00015080    0.00015080
     atom    6 type  1   force =     0.00015080    0.00015080   -0.00015080
     atom    7 type  1   force =     0.00015080   -0.00015080    0.00015080
     atom    8 type  1   force =    -0.00015080    0.00015080   -0.00015080
     atom    9 type  2   force =    -0.00000000    0.00000000    0.00000000
     atom   10 type  2   force =    -0.00000000   -0.00000000   -0.00000000
     atom   11 type  2   force =    -0.00000000   -0.00000000   -0.00000000
     atom   12 type  2   force =     0.00000000   -0.00000000   -0.00000000
     atom   13 type  3   force =     0.00000000    0.00000000   -0.00000000
     atom   14 type  3   force =     0.00000000   -0.00000000   -0.00000000
     atom   15 type  3   force =     0.00000000   -0.00000000   -0.00000000
     atom   16 type  3   force =    -0.00000000   -0.00000000   -0.00000000
     atom   17 type  4   force =    -0.00000000    0.00000000   -0.00012785
     atom   18 type  4   force =     0.00000000    0.00000000    0.00012785
     atom   19 type  4   force =    -0.00012785    0.00000000    0.00000000
     atom   20 type  4   force =     0.00012785   -0.00000000    0.00000000
     atom   21 type  4   force =     0.00000000   -0.00012785    0.00000000
     atom   22 type  4   force =     0.00000000    0.00012785    0.00000000
     atom   23 type  4   force =    -0.00000000    0.00000000   -0.00027377
     atom   24 type  4   force =     0.00000000   -0.00000000    0.00027377
     atom   25 type  4   force =    -0.00047581   -0.00000000    0.00000000
     atom   26 type  4   force =     0.00047581    0.00000000    0.00000000
     atom   27 type  4   force =     0.00000000   -0.00047581    0.00000000
     atom   28 type  4   force =     0.00000000    0.00047581    0.00000000
     atom   29 type  4   force =     0.00000000   -0.00000000   -0.00047581
     atom   30 type  4   force =    -0.00000000    0.00000000    0.00047581
     atom   31 type  4   force =    -0.00047581    0.00000000    0.00000000
     atom   32 type  4   force =     0.00047581   -0.00000000    0.00000000
     atom   33 type  4   force =    -0.00000000   -0.00027377    0.00000000
     atom   34 type  4   force =    -0.00000000    0.00027377    0.00000000
     atom   35 type  4   force =     0.00000000    0.00000000   -0.00047581
     atom   36 type  4   force =    -0.00000000    0.00000000    0.00047581
     atom   37 type  4   force =    -0.00027377   -0.00000000    0.00000000
     atom   38 type  4   force =     0.00027377   -0.00000000    0.00000000
     atom   39 type  4   force =    -0.00000000   -0.00047581    0.00000000
     atom   40 type  4   force =    -0.00000000    0.00047581    0.00000000

     Total force =     0.044628     Total SCF correction =     0.001952

     Computing stress (Cartesian axis) and pressure

     negative rho (up, down):  2.654E-01 2.643E-01
          total   stress  (Ry/bohr**3)                   (kbar)     P=      -90.19
  -0.00061307   0.00000000   0.00000000          -90.19        0.00        0.00
   0.00000000  -0.00061307   0.00000000            0.00      -90.19        0.00
   0.00000000   0.00000000  -0.00061307            0.00        0.00      -90.19

     kinetic stress (kbar)  22297.56      0.00      0.00
                                0.00  22297.56      0.00
                                0.00      0.00  22297.56

     local   stress (kbar) -10896.26     -0.00      0.00
                               -0.00 -10896.26      0.00
                                0.00      0.00 -10896.26

     nonloc. stress (kbar)  11391.47      0.00      0.00
                                0.00  11391.47      0.00
                                0.00      0.00  11391.47

     hartree stress (kbar)  11063.94     -0.00     -0.00
                               -0.00  11063.94     -0.00
                               -0.00     -0.00  11063.94

     exc-cor stress (kbar)  -1399.54     -0.00      0.00
                               -0.00  -1399.54      0.00
                                0.00      0.00  -1399.54

     corecor stress (kbar)  -4783.88     -0.00      0.00
                               -0.00  -4783.88      0.00
                                0.00      0.00  -4783.88

     ewald   stress (kbar) -27763.48     -0.00      0.00
                               -0.00 -27763.48      0.00
                                0.00      0.00 -27763.48

     hubbard stress (kbar)      0.00      0.00      0.00
                                0.00      0.00      0.00
                                0.00      0.00      0.00

     DFT-D   stress (kbar)      0.00      0.00      0.00
                                0.00      0.00      0.00
                                0.00      0.00      0.00

     XDM     stress (kbar)      0.00      0.00      0.00
                                0.00      0.00      0.00
                                0.00      0.00      0.00

     dft-nl  stress (kbar)      0.00      0.00      0.00
                                0.00      0.00      0.00
                                0.00      0.00      0.00

     TS-vdW  stress (kbar)      0.00      0.00      0.00
                                0.00      0.00      0.00
                                0.00      0.00      0.00

     MDB     stress (kbar)      0.00      0.00      0.00
                                0.00      0.00      0.00
                                0.00      0.00      0.00

     3D-RISM stress (kbar)      0.00      0.00      0.00
                                0.00      0.00      0.00
                                0.00      0.00      0.00

     Writing all to output data dir ./VLAB.save/

     General routines

     Parallel routines

   This run was terminated on:  18:38:11   7Sep2023

   JOB DONE.